c FILE: i160-344

c SOURCE: From steinlib

c DESCRIPTION: Steinlib instance with 160 nodes and 2544 edges.

p edge 160 2544
e 1 5
e 1 12
e 1 13
e 1 19
e 1 26
e 1 31
e 1 35
e 1 38
e 1 43
e 1 45
e 1 46
e 1 48
e 1 49
e 1 51
e 1 52
e 1 53
e 1 73
e 1 76
e 1 81
e 1 84
e 1 85
e 1 87
e 1 93
e 1 99
e 1 100
e 1 101
e 1 105
e 1 116
e 1 118
e 1 121
e 1 122
e 1 129
e 1 132
e 1 135
e 1 141
e 1 153
e 1 160
e 2 7
e 2 18
e 2 19
e 2 27
e 2 52
e 2 54
e 2 57
e 2 59
e 2 61
e 2 63
e 2 64
e 2 69
e 2 75
e 2 76
e 2 88
e 2 89
e 2 92
e 2 93
e 2 96
e 2 97
e 2 98
e 2 100
e 2 106
e 2 110
e 2 114
e 2 127
e 2 128
e 2 132
e 2 138
e 2 140
e 2 150
e 2 155
e 2 160
e 3 11
e 3 12
e 3 15
e 3 21
e 3 24
e 3 27
e 3 31
e 3 41
e 3 44
e 3 49
e 3 54
e 3 55
e 3 56
e 3 60
e 3 64
e 3 69
e 3 71
e 3 76
e 3 81
e 3 82
e 3 84
e 3 95
e 3 103
e 3 118
e 3 122
e 3 125
e 3 136
e 3 140
e 3 142
e 3 143
e 3 147
e 3 150
e 4 5
e 4 6
e 4 21
e 4 26
e 4 29
e 4 35
e 4 37
e 4 48
e 4 50
e 4 54
e 4 55
e 4 59
e 4 60
e 4 62
e 4 65
e 4 75
e 4 80
e 4 82
e 4 85
e 4 86
e 4 88
e 4 94
e 4 95
e 4 100
e 4 108
e 4 112
e 4 114
e 4 121
e 4 130
e 4 138
e 4 140
e 4 142
e 4 147
e 4 149
e 4 157
e 4 158
e 4 159
e 5 14
e 5 17
e 5 22
e 5 30
e 5 31
e 5 41
e 5 43
e 5 44
e 5 46
e 5 48
e 5 54
e 5 62
e 5 63
e 5 66
e 5 73
e 5 76
e 5 84
e 5 91
e 5 95
e 5 103
e 5 115
e 5 128
e 5 129
e 5 131
e 5 133
e 5 134
e 5 135
e 5 136
e 5 146
e 5 148
e 5 158
e 6 15
e 6 21
e 6 23
e 6 34
e 6 38
e 6 39
e 6 43
e 6 52
e 6 67
e 6 71
e 6 76
e 6 77
e 6 84
e 6 88
e 6 90
e 6 91
e 6 97
e 6 101
e 6 102
e 6 107
e 6 123
e 6 129
e 6 131
e 6 133
e 6 135
e 6 136
e 6 139
e 6 142
e 6 146
e 6 160
e 7 11
e 7 15
e 7 17
e 7 20
e 7 25
e 7 35
e 7 39
e 7 44
e 7 45
e 7 46
e 7 70
e 7 73
e 7 74
e 7 77
e 7 78
e 7 84
e 7 99
e 7 101
e 7 108
e 7 111
e 7 118
e 7 124
e 7 126
e 7 134
e 7 139
e 7 144
e 7 156
e 8 10
e 8 16
e 8 20
e 8 21
e 8 28
e 8 29
e 8 38
e 8 45
e 8 50
e 8 53
e 8 60
e 8 66
e 8 69
e 8 78
e 8 96
e 8 102
e 8 112
e 8 115
e 8 118
e 8 135
e 8 137
e 8 143
e 8 150
e 8 153
e 8 160
e 9 19
e 9 21
e 9 24
e 9 26
e 9 43
e 9 45
e 9 49
e 9 56
e 9 65
e 9 70
e 9 71
e 9 79
e 9 82
e 9 84
e 9 89
e 9 93
e 9 97
e 9 98
e 9 102
e 9 103
e 9 104
e 9 106
e 9 110
e 9 111
e 9 113
e 9 118
e 9 123
e 9 124
e 9 126
e 9 131
e 9 133
e 9 135
e 9 137
e 9 158
e 9 159
e 10 27
e 10 31
e 10 37
e 10 38
e 10 40
e 10 42
e 10 45
e 10 47
e 10 49
e 10 53
e 10 55
e 10 76
e 10 77
e 10 79
e 10 85
e 10 86
e 10 89
e 10 90
e 10 97
e 10 107
e 10 111
e 10 116
e 10 118
e 10 120
e 10 121
e 10 128
e 10 129
e 10 130
e 10 134
e 10 140
e 10 145
e 10 146
e 10 147
e 10 150
e 10 153
e 10 156
e 11 13
e 11 15
e 11 17
e 11 18
e 11 21
e 11 34
e 11 45
e 11 46
e 11 52
e 11 60
e 11 69
e 11 75
e 11 79
e 11 90
e 11 94
e 11 95
e 11 103
e 11 104
e 11 109
e 11 125
e 11 127
e 11 130
e 11 136
e 11 138
e 11 143
e 11 151
e 11 153
e 12 24
e 12 67
e 12 68
e 12 70
e 12 80
e 12 82
e 12 86
e 12 88
e 12 105
e 12 106
e 12 112
e 12 118
e 12 119
e 12 125
e 12 129
e 12 131
e 12 137
e 12 139
e 12 140
e 12 141
e 12 149
e 12 154
e 12 157
e 12 158
e 12 159
e 13 18
e 13 26
e 13 28
e 13 29
e 13 32
e 13 45
e 13 48
e 13 52
e 13 54
e 13 56
e 13 57
e 13 59
e 13 62
e 13 65
e 13 79
e 13 86
e 13 93
e 13 103
e 13 139
e 13 142
e 13 148
e 13 149
e 13 150
e 13 151
e 13 158
e 13 159
e 13 160
e 14 16
e 14 25
e 14 29
e 14 33
e 14 36
e 14 41
e 14 44
e 14 45
e 14 55
e 14 57
e 14 71
e 14 81
e 14 89
e 14 90
e 14 101
e 14 116
e 14 122
e 14 124
e 14 126
e 14 132
e 14 140
e 14 145
e 14 152
e 14 153
e 14 154
e 15 17
e 15 18
e 15 20
e 15 24
e 15 30
e 15 34
e 15 35
e 15 37
e 15 41
e 15 43
e 15 44
e 15 45
e 15 57
e 15 61
e 15 70
e 15 71
e 15 82
e 15 86
e 15 90
e 15 93
e 15 95
e 15 103
e 15 107
e 15 113
e 15 115
e 15 116
e 15 128
e 15 134
e 15 135
e 15 138
e 15 141
e 15 142
e 15 149
e 15 160
e 16 20
e 16 32
e 16 35
e 16 45
e 16 47
e 16 57
e 16 62
e 16 66
e 16 77
e 16 104
e 16 116
e 16 124
e 16 127
e 16 151
e 17 18
e 17 19
e 17 25
e 17 42
e 17 50
e 17 66
e 17 68
e 17 72
e 17 73
e 17 82
e 17 85
e 17 92
e 17 106
e 17 108
e 17 118
e 17 121
e 17 127
e 17 130
e 17 133
e 17 134
e 17 135
e 17 140
e 17 141
e 17 143
e 17 144
e 17 145
e 17 146
e 17 150
e 17 158
e 18 20
e 18 23
e 18 30
e 18 32
e 18 36
e 18 44
e 18 53
e 18 62
e 18 64
e 18 78
e 18 80
e 18 87
e 18 91
e 18 92
e 18 96
e 18 106
e 18 107
e 18 109
e 18 111
e 18 116
e 18 118
e 18 134
e 18 140
e 18 145
e 18 149
e 18 150
e 18 156
e 18 158
e 18 160
e 19 28
e 19 29
e 19 31
e 19 32
e 19 36
e 19 47
e 19 50
e 19 53
e 19 68
e 19 72
e 19 74
e 19 75
e 19 77
e 19 78
e 19 83
e 19 93
e 19 98
e 19 103
e 19 105
e 19 108
e 19 112
e 19 115
e 19 118
e 19 124
e 19 128
e 19 129
e 19 131
e 19 132
e 19 138
e 19 142
e 19 143
e 19 153
e 19 157
e 20 21
e 20 26
e 20 28
e 20 34
e 20 36
e 20 38
e 20 42
e 20 43
e 20 45
e 20 46
e 20 47
e 20 52
e 20 60
e 20 69
e 20 74
e 20 78
e 20 81
e 20 83
e 20 94
e 20 95
e 20 97
e 20 102
e 20 103
e 20 107
e 20 118
e 20 121
e 20 128
e 20 144
e 20 145
e 20 148
e 20 157
e 20 160
e 21 26
e 21 29
e 21 34
e 21 38
e 21 39
e 21 41
e 21 49
e 21 51
e 21 55
e 21 63
e 21 64
e 21 71
e 21 85
e 21 98
e 21 99
e 21 106
e 21 108
e 21 112
e 21 114
e 21 120
e 21 121
e 21 129
e 21 142
e 21 147
e 21 156
e 21 160
e 22 46
e 22 57
e 22 63
e 22 76
e 22 89
e 22 90
e 22 95
e 22 97
e 22 102
e 22 105
e 22 107
e 22 109
e 22 113
e 22 116
e 22 121
e 22 123
e 22 124
e 22 125
e 22 126
e 22 130
e 22 133
e 22 134
e 22 141
e 22 152
e 22 155
e 22 160
e 23 25
e 23 29
e 23 37
e 23 47
e 23 48
e 23 59
e 23 61
e 23 71
e 23 80
e 23 87
e 23 104
e 23 105
e 23 111
e 23 115
e 23 123
e 23 131
e 23 139
e 23 150
e 23 154
e 23 156
e 23 160
e 24 27
e 24 28
e 24 32
e 24 34
e 24 36
e 24 37
e 24 40
e 24 42
e 24 46
e 24 51
e 24 56
e 24 59
e 24 62
e 24 70
e 24 75
e 24 78
e 24 84
e 24 88
e 24 89
e 24 92
e 24 93
e 24 95
e 24 100
e 24 103
e 24 112
e 24 124
e 24 125
e 24 126
e 24 134
e 24 140
e 24 146
e 24 152
e 25 26
e 25 43
e 25 51
e 25 53
e 25 57
e 25 60
e 25 61
e 25 69
e 25 74
e 25 75
e 25 82
e 25 86
e 25 91
e 25 92
e 25 97
e 25 101
e 25 103
e 25 107
e 25 115
e 25 118
e 25 119
e 25 120
e 25 123
e 25 129
e 25 136
e 25 145
e 25 146
e 25 150
e 25 158
e 25 160
e 26 32
e 26 34
e 26 37
e 26 45
e 26 46
e 26 59
e 26 65
e 26 72
e 26 77
e 26 89
e 26 96
e 26 98
e 26 105
e 26 109
e 26 112
e 26 117
e 26 121
e 26 124
e 26 128
e 26 137
e 26 139
e 26 160
e 27 32
e 27 34
e 27 35
e 27 51
e 27 72
e 27 76
e 27 83
e 27 98
e 27 100
e 27 104
e 27 109
e 27 112
e 27 115
e 27 122
e 27 125
e 27 126
e 27 130
e 27 135
e 27 148
e 27 153
e 27 154
e 28 29
e 28 34
e 28 41
e 28 53
e 28 54
e 28 56
e 28 63
e 28 64
e 28 67
e 28 81
e 28 86
e 28 90
e 28 91
e 28 92
e 28 94
e 28 105
e 28 106
e 28 108
e 28 109
e 28 112
e 28 114
e 28 124
e 28 126
e 28 128
e 28 132
e 28 136
e 28 142
e 28 148
e 28 150
e 28 151
e 29 42
e 29 44
e 29 45
e 29 59
e 29 60
e 29 65
e 29 75
e 29 80
e 29 89
e 29 92
e 29 100
e 29 103
e 29 104
e 29 106
e 29 110
e 29 111
e 29 112
e 29 114
e 29 115
e 29 119
e 29 122
e 29 124
e 29 133
e 29 154
e 29 155
e 29 159
e 30 37
e 30 40
e 30 42
e 30 45
e 30 55
e 30 59
e 30 61
e 30 71
e 30 85
e 30 91
e 30 96
e 30 98
e 30 101
e 30 106
e 30 109
e 30 115
e 30 123
e 30 125
e 30 139
e 30 141
e 30 142
e 30 150
e 30 152
e 30 153
e 31 35
e 31 44
e 31 51
e 31 56
e 31 58
e 31 64
e 31 69
e 31 70
e 31 76
e 31 77
e 31 79
e 31 86
e 31 93
e 31 94
e 31 101
e 31 104
e 31 111
e 31 142
e 31 145
e 31 147
e 32 34
e 32 36
e 32 37
e 32 39
e 32 41
e 32 43
e 32 55
e 32 57
e 32 65
e 32 67
e 32 70
e 32 71
e 32 80
e 32 84
e 32 86
e 32 90
e 32 92
e 32 95
e 32 100
e 32 103
e 32 105
e 32 108
e 32 112
e 32 122
e 32 123
e 32 132
e 32 133
e 32 157
e 32 159
e 33 34
e 33 37
e 33 48
e 33 49
e 33 51
e 33 54
e 33 56
e 33 58
e 33 63
e 33 72
e 33 73
e 33 78
e 33 83
e 33 90
e 33 91
e 33 98
e 33 101
e 33 107
e 33 111
e 33 120
e 33 136
e 33 145
e 33 147
e 33 156
e 33 158
e 34 36
e 34 38
e 34 40
e 34 44
e 34 45
e 34 49
e 34 50
e 34 58
e 34 67
e 34 69
e 34 70
e 34 73
e 34 76
e 34 79
e 34 84
e 34 86
e 34 88
e 34 95
e 34 102
e 34 106
e 34 107
e 34 109
e 34 112
e 34 116
e 34 120
e 34 123
e 34 125
e 34 132
e 34 135
e 34 147
e 34 150
e 34 153
e 35 39
e 35 44
e 35 46
e 35 50
e 35 56
e 35 58
e 35 61
e 35 70
e 35 78
e 35 79
e 35 84
e 35 86
e 35 87
e 35 91
e 35 98
e 35 114
e 35 119
e 35 122
e 35 125
e 35 126
e 35 134
e 35 135
e 35 139
e 35 141
e 35 142
e 35 143
e 35 147
e 35 154
e 35 159
e 36 37
e 36 39
e 36 42
e 36 48
e 36 49
e 36 52
e 36 58
e 36 60
e 36 62
e 36 69
e 36 71
e 36 88
e 36 89
e 36 92
e 36 94
e 36 97
e 36 101
e 36 102
e 36 108
e 36 109
e 36 120
e 36 122
e 36 130
e 36 132
e 36 133
e 36 134
e 36 139
e 36 148
e 36 150
e 36 152
e 36 155
e 36 158
e 37 42
e 37 43
e 37 45
e 37 46
e 37 53
e 37 58
e 37 60
e 37 63
e 37 67
e 37 70
e 37 74
e 37 75
e 37 77
e 37 79
e 37 87
e 37 88
e 37 89
e 37 91
e 37 92
e 37 95
e 37 97
e 37 101
e 37 102
e 37 104
e 37 106
e 37 111
e 37 115
e 37 117
e 37 118
e 37 119
e 37 120
e 37 129
e 37 132
e 37 134
e 37 140
e 37 152
e 37 155
e 37 156
e 37 157
e 38 39
e 38 47
e 38 60
e 38 66
e 38 76
e 38 91
e 38 93
e 38 96
e 38 98
e 38 99
e 38 102
e 38 106
e 38 108
e 38 112
e 38 115
e 38 118
e 38 126
e 38 127
e 38 132
e 38 135
e 38 152
e 38 155
e 38 160
e 39 43
e 39 52
e 39 54
e 39 57
e 39 61
e 39 72
e 39 75
e 39 91
e 39 100
e 39 101
e 39 102
e 39 109
e 39 124
e 39 128
e 39 135
e 39 138
e 39 140
e 39 149
e 39 151
e 40 47
e 40 53
e 40 55
e 40 61
e 40 63
e 40 65
e 40 71
e 40 77
e 40 78
e 40 81
e 40 82
e 40 84
e 40 97
e 40 104
e 40 107
e 40 108
e 40 132
e 40 137
e 40 143
e 40 145
e 40 153
e 40 155
e 40 156
e 40 157
e 41 47
e 41 52
e 41 57
e 41 58
e 41 70
e 41 72
e 41 78
e 41 82
e 41 85
e 41 88
e 41 89
e 41 94
e 41 105
e 41 108
e 41 113
e 41 115
e 41 118
e 41 127
e 41 136
e 41 137
e 41 138
e 41 140
e 41 147
e 41 148
e 41 153
e 41 160
e 42 50
e 42 52
e 42 72
e 42 78
e 42 83
e 42 86
e 42 89
e 42 94
e 42 97
e 42 101
e 42 106
e 42 109
e 42 111
e 42 122
e 42 125
e 42 128
e 42 132
e 42 133
e 42 139
e 42 148
e 42 157
e 42 160
e 43 45
e 43 48
e 43 50
e 43 67
e 43 75
e 43 88
e 43 89
e 43 97
e 43 114
e 43 116
e 43 117
e 43 118
e 43 135
e 43 142
e 43 145
e 43 148
e 43 152
e 43 157
e 43 160
e 44 48
e 44 53
e 44 59
e 44 64
e 44 73
e 44 90
e 44 95
e 44 110
e 44 117
e 44 120
e 44 122
e 44 125
e 44 129
e 44 131
e 44 140
e 45 47
e 45 49
e 45 50
e 45 51
e 45 58
e 45 66
e 45 69
e 45 71
e 45 72
e 45 73
e 45 75
e 45 76
e 45 77
e 45 93
e 45 97
e 45 102
e 45 105
e 45 111
e 45 121
e 45 135
e 45 139
e 45 147
e 46 48
e 46 53
e 46 58
e 46 66
e 46 74
e 46 77
e 46 78
e 46 83
e 46 86
e 46 111
e 46 115
e 46 120
e 46 125
e 46 127
e 46 130
e 46 131
e 46 135
e 46 140
e 46 153
e 47 50
e 47 58
e 47 62
e 47 63
e 47 70
e 47 74
e 47 80
e 47 81
e 47 83
e 47 85
e 47 90
e 47 102
e 47 104
e 47 110
e 47 112
e 47 120
e 47 127
e 47 134
e 47 136
e 47 146
e 47 148
e 48 49
e 48 57
e 48 60
e 48 64
e 48 66
e 48 68
e 48 77
e 48 78
e 48 80
e 48 81
e 48 82
e 48 83
e 48 84
e 48 87
e 48 93
e 48 94
e 48 105
e 48 106
e 48 107
e 48 108
e 48 113
e 48 120
e 48 123
e 48 134
e 49 50
e 49 54
e 49 60
e 49 64
e 49 68
e 49 75
e 49 81
e 49 84
e 49 91
e 49 94
e 49 104
e 49 108
e 49 109
e 49 115
e 49 123
e 49 128
e 49 130
e 49 133
e 49 138
e 49 148
e 49 156
e 49 159
e 50 58
e 50 67
e 50 77
e 50 83
e 50 85
e 50 86
e 50 93
e 50 103
e 50 107
e 50 114
e 50 123
e 50 137
e 50 142
e 50 145
e 50 148
e 51 54
e 51 55
e 51 58
e 51 61
e 51 63
e 51 68
e 51 71
e 51 83
e 51 86
e 51 98
e 51 100
e 51 107
e 51 109
e 51 119
e 51 124
e 51 136
e 51 141
e 51 144
e 51 148
e 51 155
e 51 158
e 51 159
e 52 54
e 52 56
e 52 57
e 52 58
e 52 65
e 52 66
e 52 73
e 52 78
e 52 84
e 52 85
e 52 87
e 52 91
e 52 103
e 52 104
e 52 110
e 52 113
e 52 115
e 52 122
e 52 124
e 52 134
e 52 135
e 52 139
e 52 147
e 52 156
e 52 157
e 53 73
e 53 81
e 53 89
e 53 91
e 53 95
e 53 105
e 53 106
e 53 130
e 53 136
e 53 137
e 53 142
e 53 146
e 53 148
e 53 158
e 54 56
e 54 59
e 54 77
e 54 80
e 54 85
e 54 90
e 54 91
e 54 94
e 54 96
e 54 105
e 54 109
e 54 112
e 54 124
e 54 129
e 54 131
e 54 134
e 54 136
e 54 145
e 54 147
e 54 152
e 54 156
e 54 158
e 54 159
e 55 58
e 55 62
e 55 63
e 55 73
e 55 74
e 55 75
e 55 85
e 55 89
e 55 111
e 55 114
e 55 128
e 55 131
e 55 138
e 55 143
e 55 146
e 55 149
e 55 151
e 55 156
e 55 159
e 56 57
e 56 59
e 56 65
e 56 72
e 56 77
e 56 81
e 56 86
e 56 91
e 56 94
e 56 100
e 56 102
e 56 106
e 56 122
e 56 123
e 56 129
e 56 133
e 56 136
e 56 141
e 56 144
e 56 148
e 56 153
e 56 156
e 57 60
e 57 64
e 57 66
e 57 70
e 57 74
e 57 75
e 57 78
e 57 80
e 57 96
e 57 103
e 57 111
e 57 113
e 57 121
e 57 122
e 57 128
e 57 144
e 57 149
e 57 156
e 58 62
e 58 64
e 58 75
e 58 76
e 58 81
e 58 82
e 58 93
e 58 95
e 58 96
e 58 97
e 58 99
e 58 106
e 58 111
e 58 118
e 58 121
e 58 124
e 58 133
e 58 148
e 58 151
e 58 155
e 58 158
e 59 66
e 59 73
e 59 80
e 59 91
e 59 99
e 59 101
e 59 112
e 59 114
e 59 125
e 59 128
e 59 130
e 59 137
e 59 138
e 59 139
e 59 141
e 59 150
e 59 151
e 59 154
e 60 63
e 60 65
e 60 69
e 60 73
e 60 91
e 60 103
e 60 104
e 60 116
e 60 119
e 60 124
e 60 127
e 60 131
e 60 132
e 60 133
e 60 137
e 60 138
e 60 160
e 61 66
e 61 69
e 61 71
e 61 72
e 61 76
e 61 80
e 61 88
e 61 95
e 61 98
e 61 99
e 61 102
e 61 110
e 61 127
e 61 132
e 61 139
e 61 140
e 61 141
e 61 144
e 61 147
e 61 148
e 61 149
e 61 158
e 62 68
e 62 72
e 62 74
e 62 75
e 62 83
e 62 84
e 62 88
e 62 92
e 62 97
e 62 109
e 62 110
e 62 114
e 62 127
e 62 131
e 62 137
e 62 144
e 62 160
e 63 68
e 63 75
e 63 77
e 63 80
e 63 83
e 63 90
e 63 91
e 63 93
e 63 98
e 63 111
e 63 116
e 63 117
e 63 122
e 63 129
e 63 132
e 63 133
e 63 134
e 63 136
e 63 140
e 63 143
e 63 147
e 63 148
e 63 152
e 63 154
e 63 157
e 64 65
e 64 72
e 64 79
e 64 80
e 64 86
e 64 92
e 64 105
e 64 106
e 64 110
e 64 115
e 64 117
e 64 119
e 64 122
e 64 127
e 64 131
e 64 137
e 64 138
e 64 140
e 64 144
e 64 146
e 64 149
e 64 153
e 64 155
e 64 157
e 65 67
e 65 68
e 65 75
e 65 80
e 65 82
e 65 85
e 65 89
e 65 92
e 65 93
e 65 95
e 65 96
e 65 99
e 65 103
e 65 111
e 65 114
e 65 115
e 65 140
e 65 141
e 65 145
e 65 152
e 65 158
e 66 69
e 66 80
e 66 86
e 66 88
e 66 89
e 66 95
e 66 98
e 66 110
e 66 113
e 66 114
e 66 124
e 66 126
e 66 127
e 66 133
e 66 139
e 66 143
e 66 144
e 67 68
e 67 70
e 67 71
e 67 74
e 67 78
e 67 85
e 67 86
e 67 92
e 67 95
e 67 101
e 67 103
e 67 106
e 67 108
e 67 109
e 67 114
e 67 120
e 67 126
e 67 135
e 67 144
e 67 146
e 67 150
e 67 158
e 68 69
e 68 77
e 68 91
e 68 94
e 68 99
e 68 100
e 68 102
e 68 103
e 68 114
e 68 116
e 68 118
e 68 119
e 68 128
e 68 133
e 68 139
e 68 145
e 68 154
e 68 155
e 69 75
e 69 76
e 69 82
e 69 84
e 69 86
e 69 93
e 69 95
e 69 97
e 69 98
e 69 103
e 69 104
e 69 105
e 69 125
e 69 127
e 69 136
e 69 151
e 69 155
e 70 78
e 70 86
e 70 93
e 70 99
e 70 101
e 70 105
e 70 107
e 70 108
e 70 114
e 70 116
e 70 120
e 70 129
e 70 130
e 70 133
e 70 140
e 70 143
e 70 145
e 70 148
e 70 152
e 70 160
e 71 75
e 71 83
e 71 92
e 71 108
e 71 112
e 71 121
e 71 124
e 71 126
e 71 131
e 71 134
e 71 138
e 71 144
e 71 150
e 71 153
e 72 74
e 72 75
e 72 77
e 72 78
e 72 82
e 72 83
e 72 85
e 72 87
e 72 100
e 72 103
e 72 107
e 72 108
e 72 112
e 72 114
e 72 121
e 72 122
e 72 126
e 72 130
e 72 135
e 72 137
e 72 144
e 72 145
e 72 150
e 72 152
e 72 156
e 72 159
e 72 160
e 73 89
e 73 90
e 73 91
e 73 93
e 73 99
e 73 104
e 73 107
e 73 108
e 73 116
e 73 119
e 73 123
e 73 134
e 73 146
e 73 148
e 73 151
e 73 155
e 73 159
e 74 81
e 74 88
e 74 92
e 74 100
e 74 101
e 74 102
e 74 106
e 74 113
e 74 116
e 74 119
e 74 121
e 74 125
e 74 126
e 74 129
e 74 130
e 74 131
e 74 135
e 74 137
e 74 140
e 74 143
e 75 81
e 75 86
e 75 90
e 75 106
e 75 110
e 75 111
e 75 113
e 75 114
e 75 118
e 75 124
e 75 125
e 75 126
e 75 140
e 75 142
e 75 153
e 75 159
e 75 160
e 76 81
e 76 86
e 76 88
e 76 96
e 76 98
e 76 117
e 76 118
e 76 119
e 76 123
e 76 125
e 76 135
e 76 142
e 76 145
e 76 146
e 76 150
e 76 151
e 76 152
e 76 155
e 76 158
e 77 82
e 77 83
e 77 88
e 77 94
e 77 99
e 77 104
e 77 110
e 77 116
e 77 117
e 77 121
e 77 131
e 77 133
e 77 135
e 77 136
e 77 139
e 77 140
e 77 141
e 77 144
e 77 149
e 77 160
e 78 91
e 78 93
e 78 95
e 78 98
e 78 104
e 78 110
e 78 112
e 78 119
e 78 120
e 78 125
e 78 137
e 78 153
e 79 82
e 79 83
e 79 84
e 79 87
e 79 89
e 79 91
e 79 92
e 79 113
e 79 116
e 79 117
e 79 123
e 79 125
e 79 126
e 79 127
e 79 128
e 79 135
e 79 139
e 79 141
e 79 143
e 79 146
e 79 151
e 79 157
e 79 160
e 80 82
e 80 86
e 80 90
e 80 99
e 80 100
e 80 102
e 80 117
e 80 119
e 80 121
e 80 127
e 80 128
e 80 130
e 80 132
e 80 138
e 80 140
e 80 145
e 80 155
e 81 82
e 81 85
e 81 93
e 81 102
e 81 104
e 81 113
e 81 129
e 81 131
e 81 133
e 81 136
e 81 140
e 81 141
e 81 148
e 81 155
e 81 159
e 82 84
e 82 86
e 82 90
e 82 94
e 82 95
e 82 97
e 82 107
e 82 114
e 82 115
e 82 118
e 82 121
e 82 124
e 82 127
e 82 131
e 82 135
e 82 136
e 82 138
e 82 152
e 82 158
e 82 159
e 83 88
e 83 89
e 83 93
e 83 97
e 83 103
e 83 104
e 83 105
e 83 109
e 83 113
e 83 115
e 83 128
e 83 130
e 83 131
e 83 134
e 83 141
e 83 143
e 83 153
e 83 154
e 84 87
e 84 91
e 84 101
e 84 102
e 84 128
e 84 129
e 84 132
e 84 138
e 84 141
e 84 145
e 84 149
e 84 150
e 84 153
e 85 93
e 85 105
e 85 109
e 85 111
e 85 114
e 85 115
e 85 124
e 85 128
e 85 137
e 85 139
e 85 141
e 85 154
e 86 93
e 86 96
e 86 97
e 86 117
e 86 126
e 86 132
e 86 156
e 86 159
e 87 90
e 87 92
e 87 94
e 87 111
e 87 118
e 87 120
e 87 122
e 87 129
e 87 131
e 87 136
e 87 140
e 87 143
e 87 147
e 87 154
e 87 156
e 87 159
e 88 98
e 88 117
e 88 118
e 88 128
e 88 130
e 88 138
e 88 150
e 88 153
e 89 90
e 89 106
e 89 118
e 89 125
e 89 128
e 89 130
e 89 134
e 89 138
e 89 139
e 89 144
e 89 145
e 90 94
e 90 104
e 90 107
e 90 116
e 90 121
e 90 122
e 90 123
e 90 135
e 90 148
e 90 155
e 90 159
e 90 160
e 91 94
e 91 99
e 91 109
e 91 111
e 91 119
e 91 127
e 91 140
e 91 141
e 91 150
e 91 151
e 92 94
e 92 97
e 92 107
e 92 115
e 92 116
e 92 117
e 92 125
e 92 127
e 92 132
e 92 135
e 92 142
e 92 144
e 92 155
e 92 160
e 93 95
e 93 107
e 93 113
e 93 117
e 93 125
e 93 126
e 93 136
e 93 143
e 93 148
e 93 150
e 93 154
e 93 155
e 93 156
e 93 157
e 93 159
e 94 103
e 94 108
e 94 112
e 94 118
e 94 119
e 94 120
e 94 121
e 94 127
e 94 130
e 94 134
e 94 152
e 94 155
e 94 158
e 95 96
e 95 102
e 95 122
e 95 127
e 95 131
e 95 132
e 95 135
e 95 137
e 95 148
e 95 155
e 95 159
e 96 113
e 96 115
e 96 119
e 96 122
e 96 131
e 96 140
e 96 142
e 96 147
e 96 150
e 96 155
e 97 106
e 97 113
e 97 114
e 97 115
e 97 120
e 97 132
e 97 136
e 97 142
e 97 143
e 97 146
e 97 148
e 97 154
e 97 159
e 98 112
e 98 114
e 98 115
e 98 119
e 98 121
e 98 126
e 98 134
e 98 136
e 98 139
e 98 153
e 98 156
e 98 157
e 98 160
e 99 111
e 99 117
e 99 118
e 99 123
e 99 128
e 99 131
e 99 133
e 99 136
e 99 142
e 99 145
e 99 160
e 100 103
e 100 104
e 100 125
e 100 129
e 100 133
e 100 137
e 100 141
e 100 143
e 100 146
e 100 147
e 100 154
e 100 155
e 100 159
e 100 160
e 101 112
e 101 113
e 101 115
e 101 119
e 101 135
e 101 141
e 101 145
e 101 150
e 101 154
e 101 159
e 102 103
e 102 105
e 102 110
e 102 118
e 102 121
e 102 136
e 102 137
e 102 138
e 102 139
e 102 142
e 102 143
e 102 147
e 102 153
e 103 105
e 103 111
e 103 124
e 103 125
e 103 126
e 103 130
e 103 134
e 103 141
e 103 142
e 103 145
e 103 150
e 103 153
e 103 156
e 103 160
e 104 105
e 104 106
e 104 115
e 104 117
e 104 129
e 104 131
e 104 132
e 104 133
e 104 139
e 104 141
e 104 145
e 104 148
e 104 149
e 104 151
e 104 156
e 105 117
e 105 119
e 105 120
e 105 123
e 105 128
e 105 130
e 105 131
e 105 143
e 105 152
e 105 157
e 105 158
e 106 108
e 106 109
e 106 112
e 106 114
e 106 118
e 106 120
e 106 125
e 106 126
e 106 130
e 106 135
e 106 145
e 106 146
e 106 147
e 106 148
e 106 149
e 106 157
e 107 130
e 107 132
e 107 134
e 107 135
e 107 149
e 107 150
e 107 152
e 107 158
e 108 111
e 108 123
e 108 125
e 108 129
e 108 130
e 108 132
e 108 133
e 108 141
e 108 153
e 108 155
e 108 156
e 109 115
e 109 116
e 109 121
e 109 125
e 109 127
e 109 139
e 109 140
e 109 142
e 109 143
e 109 151
e 109 156
e 110 111
e 110 115
e 110 121
e 110 126
e 110 128
e 110 154
e 110 159
e 111 119
e 111 123
e 111 124
e 111 133
e 111 145
e 111 146
e 111 154
e 111 155
e 111 158
e 111 160
e 112 115
e 112 116
e 112 124
e 112 130
e 112 136
e 112 144
e 112 146
e 112 150
e 112 152
e 112 153
e 112 158
e 112 159
e 113 118
e 113 126
e 113 132
e 113 135
e 113 138
e 113 141
e 113 144
e 113 145
e 113 149
e 113 156
e 113 157
e 113 160
e 114 115
e 114 123
e 114 131
e 114 133
e 114 134
e 114 136
e 114 138
e 114 141
e 114 154
e 114 157
e 114 158
e 115 119
e 115 132
e 115 133
e 115 135
e 115 136
e 115 138
e 115 141
e 115 150
e 115 152
e 116 135
e 116 139
e 116 144
e 116 150
e 116 152
e 116 155
e 117 125
e 117 132
e 117 133
e 117 134
e 117 136
e 117 149
e 117 151
e 117 157
e 118 120
e 118 125
e 118 129
e 118 130
e 118 134
e 118 140
e 118 147
e 118 155
e 119 123
e 119 124
e 119 138
e 119 144
e 119 147
e 119 148
e 119 150
e 119 154
e 119 156
e 119 158
e 119 160
e 120 129
e 120 147
e 120 157
e 120 159
e 121 122
e 121 125
e 121 129
e 121 130
e 121 136
e 121 137
e 121 140
e 121 143
e 121 151
e 121 156
e 121 160
e 122 123
e 122 127
e 122 128
e 122 136
e 122 141
e 122 143
e 122 154
e 122 155
e 123 128
e 123 129
e 123 132
e 123 135
e 123 138
e 123 148
e 123 154
e 123 155
e 123 156
e 124 129
e 124 132
e 124 146
e 124 147
e 124 151
e 125 139
e 125 153
e 125 156
e 125 160
e 126 127
e 126 145
e 126 148
e 126 151
e 126 153
e 126 157
e 127 129
e 127 136
e 127 144
e 127 147
e 127 152
e 127 157
e 127 159
e 128 133
e 128 137
e 128 138
e 128 140
e 128 142
e 128 149
e 128 154
e 128 155
e 128 157
e 129 139
e 129 140
e 129 143
e 129 147
e 129 149
e 129 153
e 129 155
e 130 132
e 130 137
e 130 142
e 130 146
e 130 147
e 130 155
e 130 159
e 131 144
e 131 147
e 131 152
e 131 155
e 132 137
e 132 138
e 132 142
e 132 149
e 132 153
e 132 158
e 133 139
e 133 149
e 133 151
e 133 155
e 134 137
e 134 138
e 134 139
e 134 140
e 134 143
e 134 144
e 134 156
e 135 137
e 135 141
e 135 147
e 135 149
e 135 159
e 136 138
e 136 141
e 136 144
e 136 149
e 136 151
e 136 158
e 137 139
e 137 143
e 137 144
e 137 150
e 137 151
e 137 154
e 138 140
e 138 145
e 138 148
e 138 149
e 139 141
e 139 145
e 139 150
e 139 152
e 140 148
e 140 154
e 140 156
e 141 145
e 141 150
e 141 160
e 142 152
e 142 153
e 142 157
e 142 158
e 143 147
e 143 148
e 143 156
e 144 146
e 145 152
e 145 153
e 145 157
e 146 148
e 147 152
e 147 153
e 147 155
e 147 159
e 147 160
e 148 152
e 148 157
e 149 152
e 150 151
e 150 153
e 150 156
e 150 157
e 150 159
e 151 153
e 151 158
e 152 159
e 153 154
e 153 158
e 153 159
e 155 156
e 156 159
e 157 159
